Geographic Exponential Decay
80 114 257 154 180 87 232 149 14 226 202 122 68 254 166 33 109 313 48 57 200 252 15 201 53 271 61 312 289 161 207 143 9 110 253 101 47 291 182 212 196 107 83 151 268 155 211 294 75 49 106 131 44 135 208 55 192 214 186 231 227 216 217 88 112 148 67 297 54 132 286 4 100 105 256 8 314 190 113 138 111
p edge 320 320
e 0 48 5.0
e 1 60 1.0
e 1 0 5.0
e 2 61 54.0
e 2 1 2.0
e 3 314 74.0
e 3 2 6.0
e 4 19 30.0
e 4 277 73.0
e 4 138 13.0
e 5 44 40.0
e 5 3 1.0
e 6 211 13.0
e 7 245 1.0
e 7 5 1.0
e 8 252 3.0
e 8 28 52.0
e 8 306 66.0
e 8 7 48.0
e 9 146 18.0
e 9 152 64.0
e 9 294 43.0
e 9 8 74.0
e 10 199 2.0
e 10 9 46.0
e 11 62 5.0
e 11 10 1.0
e 12 142 19.0
e 12 11 23.0
e 13 279 4.0
e 13 12 21.0
e 14 260 28.0
e 14 89 16.0
e 14 79 50.0
e 14 13 36.0
e 15 256 97.0
e 15 136 43.0
e 15 203 32.0
e 16 145 1.0
e 16 14 6.0
e 17 270 3.0
e 17 16 2.0
e 18 70 1.0
e 18 17 5.0
e 20 238 5.0
e 20 18 3.0
e 21 228 1.0
e 21 20 1.0
e 22 275 2.0
e 22 21 6.0
e 23 173 1.0
e 23 22 5.0
e 24 226 21.0
e 25 246 1.0
e 25 23 1.0
e 26 118 1.0
e 26 25 3.0
e 27 163 1.0
e 27 26 6.0
e 29 104 11.0
e 29 27 11.0
e 30 167 1.0
e 30 29 10.0
e 31 71 6.0
e 31 30 3.0
e 32 124 7.0
e 32 31 1.0
e 33 283 32.0
e 33 34 69.0
e 33 204 98.0
e 33 32 96.0
e 35 308 18.0
e 35 33 25.0
e 36 91 4.0
e 36 35 10.0
e 37 193 4.0
e 37 36 1.0
e 38 39 7.0
e 38 37 3.0
e 40 94 1.0
e 40 38 1.0
e 41 214 24.0
e 42 87 65.0
e 42 40 2.0
e 43 196 58.0
e 43 42 1.0
e 44 100 18.0
e 44 232 30.0
e 45 77 1.0
e 45 43 3.0
e 46 263 2.0
e 46 45 3.0
e 47 194 77.0
e 47 223 48.0
e 47 48 7.0
e 48 262 67.0
e 49 137 58.0
e 49 215 28.0
e 49 132 40.0
e 49 46 30.0
e 50 175 5.0
e 50 49 20.0
e 51 208 59.0
e 51 50 3.0
e 52 164 1.0
e 52 51 2.0
e 53 251 92.0
e 53 202 18.0
e 53 105 27.0
e 54 165 31.0
e 54 102 38.0
e 54 305 35.0
e 54 52 21.0
e 55 56 89.0
e 55 57 8.0
e 55 110 35.0
e 57 58 3.0
e 57 198 25.0
e 59 213 1.0
e 59 54 64.0
e 61 63 98.0
e 61 143 80.0
e 64 114 92.0
e 65 247 14.0
e 65 59 1.0
e 66 125 4.0
e 66 65 6.0
e 67 147 65.0
e 67 286 1.0
e 67 68 98.0
e 68 153 96.0
e 68 69 15.0
e 72 288 2.0
e 72 66 6.0
e 73 264 1.0
e 73 72 1.0
e 74 75 83.0
e 75 76 43.0
e 75 207 64.0
e 78 248 3.0
e 78 73 1.0
e 80 126 1.0
e 80 78 4.0
e 81 82 1.0
e 81 80 5.0
e 83 307 62.0
e 83 160 2.0
e 83 280 10.0
e 83 81 14.0
e 84 85 4.0
e 84 83 68.0
e 86 92 28.0
e 86 106 64.0
e 87 88 15.0
e 87 299 34.0
e 88 254 13.0
e 88 249 22.0
e 90 93 1.0
e 90 84 2.0
e 95 276 1.0
e 95 90 1.0
e 96 174 1.0
e 96 95 1.0
e 97 303 1.0
e 97 96 2.0
e 98 200 56.0
e 99 229 6.0
e 99 97 17.0
e 100 101 97.0
e 100 103 2.0
e 101 298 70.0
e 101 205 64.0
e 105 272 90.0
e 105 200 16.0
e 106 107 33.0
e 106 170 53.0
e 107 108 86.0
e 107 148 62.0
e 109 265 66.0
e 109 110 87.0
e 109 111 94.0
e 110 208 69.0
e 111 184 9.0
e 111 240 88.0
e 112 234 52.0
e 112 186 95.0
e 112 287 93.0
e 112 99 80.0
e 113 132 47.0
e 113 114 76.0
e 113 115 57.0
e 114 220 52.0
e 116 150 5.0
e 116 112 33.0
e 117 293 24.0
e 117 116 1.0
e 119 216 31.0
e 119 117 19.0
e 120 121 1.0
e 120 119 1.0
e 122 269 43.0
e 122 123 63.0
e 122 154 33.0
e 127 227 58.0
e 128 297 36.0
e 129 130 2.0
e 129 120 2.0
e 131 209 81.0
e 131 191 63.0
e 131 132 95.0
e 133 134 1.0
e 133 129 1.0
e 135 138 61.0
e 135 256 33.0
e 135 212 86.0
e 138 312 22.0
e 139 166 67.0
e 139 133 1.0
e 140 278 23.0
e 140 139 13.0
e 141 206 12.0
e 141 140 3.0
e 143 144 60.0
e 143 292 99.0
e 148 149 60.0
e 148 151 33.0
e 149 254 8.0
e 149 266 17.0
e 151 230 91.0
e 151 255 1.0
e 154 155 85.0
e 154 156 24.0
e 155 157 31.0
e 155 271 17.0
e 158 159 1.0
e 158 141 2.0
e 161 162 68.0
e 161 166 54.0
e 161 261 29.0
e 166 242 48.0
e 168 317 2.0
e 168 158 5.0
e 169 291 83.0
e 171 304 1.0
e 171 168 2.0
e 172 227 44.0
e 176 177 20.0
e 176 171 9.0
e 178 179 5.0
e 178 176 1.0
e 180 195 8.0
e 180 181 7.0
e 180 182 60.0
e 182 183 82.0
e 182 200 92.0
e 185 186 8.0
e 186 281 75.0
e 187 188 1.0
e 187 178 2.0
e 189 243 1.0
e 189 187 5.0
e 190 300 42.0
e 190 192 100.0
e 190 196 64.0
e 192 201 71.0
e 192 316 31.0
e 196 289 85.0
e 197 201 10.0
e 201 202 94.0
e 202 302 79.0
e 207 208 32.0
e 207 210 7.0
e 211 212 20.0
e 211 214 13.0
e 212 214 83.0
e 216 217 2.0
e 216 218 36.0
e 217 219 91.0
e 217 318 65.0
e 221 239 1.0
e 221 189 1.0
e 222 284 2.0
e 222 221 2.0
e 224 225 1.0
e 224 222 15.0
e 226 227 56.0
e 226 231 13.0
e 231 232 75.0
e 231 233 92.0
e 232 235 88.0
e 236 237 3.0
e 236 224 1.0
e 241 244 5.0
e 241 236 4.0
e 250 252 47.0
e 252 301 76.0
e 253 309 79.0
e 253 273 17.0
e 253 254 90.0
e 256 282 61.0
e 257 258 13.0
e 257 259 55.0
e 257 267 90.0
e 257 241 66.0
e 268 271 92.0
e 268 274 94.0
e 268 285 94.0
e 271 309 5.0
e 286 310 47.0
e 286 289 66.0
e 289 290 84.0
e 291 294 40.0
e 291 295 43.0
e 294 296 31.0
e 297 311 89.0
e 297 312 58.0
e 312 313 90.0
e 313 314 93.0
e 313 315 76.0
e 314 319 78.0
